solution status: optimal solution found
objective value:                     125516.838051027
d11(0,0)                                            1 	(obj:0)
d11(1,1)                                            1 	(obj:0)
d11(1,2)                                            1 	(obj:0)
d11(2,3)                                            1 	(obj:0)
d11(2,4)                                            1 	(obj:0)
d11(2,5)                                            1 	(obj:0)
d11(3,9)                                            1 	(obj:0)
d11(3,11)                                           1 	(obj:0)
d11(3,13)                                           1 	(obj:0)
d12(3,8)                                            1 	(obj:0)
d12(3,10)                                           1 	(obj:0)
d12(3,12)                                           1 	(obj:0)
d12(3,14)                                           1 	(obj:0)
d21(2,3)                                            1 	(obj:0)
d21(3,7)                                            1 	(obj:0)
d21(3,8)                                            1 	(obj:0)
d21(3,11)                                           1 	(obj:0)
y2(3,8)                              1385.48851144895 	(obj:0)
y2(3,10)                             1385.48851144895 	(obj:0)
y2(3,12)                             1385.48851144895 	(obj:0)
y2(3,14)                             1385.48851144895 	(obj:0)
STE(1,1)                             8315.99999999889 	(obj:0)
STE(0,0)                                        12600 	(obj:0)
STE(1,2)                             9974.24989888771 	(obj:0)
STE(2,3)                             5649.75010111005 	(obj:0)
STE(2,4)                             7307.99999999889 	(obj:0)
STE(2,5)                             7307.99999999887 	(obj:0)
STE(2,6)                             8966.24989888771 	(obj:0)
STE(3,7)                             4641.75010111005 	(obj:0)
STE(3,8)                             5957.96418698655 	(obj:0)
STE(3,9)                             6299.99999999889 	(obj:0)
STE(3,10)                             7616.2140858754 	(obj:0)
STE(3,11)                            6299.99999999887 	(obj:0)
STE(3,12)                            7616.21408587537 	(obj:0)
STE(3,13)                            7958.24989888771 	(obj:0)
STE(3,14)                            9274.46398476422 	(obj:0)
AVE(2)                               3315.65537776224 	(obj:0)
WB(3)                                3315.65799770399 	(obj:0)
y1(1,1)                                2948.400000001 	(obj:0)
y1(1,2)                              1455.97509100106 	(obj:0)
y1(2,3)                              1492.42490899996 	(obj:0)
y1(2,5)                              1492.42490899996 	(obj:0)
AVE(3)                               3315.65799770399 	(obj:0)
WG(1)                                3248.33172520918 	(obj:10)
WG(2)                                3315.65537776224 	(obj:10)
BG(1)                                2433.64964213881 	(obj:10)
BG(2)                                880.637121217351 	(obj:10)
BG(3)                                2673.40993877551 	(obj:10)
AVE(1)                               3248.33172520918 	(obj:0)
